WARNING: for repeatability, setting FPU to use double precision
============================[ Problem Statistics ]=============================
|                                                                             |
|  Number of variables:       2079116                                         |
|  Number of clauses:        10688739                                         |
|  Parse time:                   2.25 s                                       |
|                                                                             |
c ============================[ Search Statistics ]==============================
c | Conflicts |          ORIGINAL         |          LEARNT          | Progress |
c |           |    Vars  Clauses Literals |    Limit  Clauses Lit/Cl |          |
c ===============================================================================
We had 1168 decisions of which only 0 were on extended
We had 148144143 decisions of which only 0 were on extended
c Switched to VSIDS.
c Switched to LRB.
c Switched to VSIDS.
c Switched to LRB.
c Switched to VSIDS.
c Switched to LRB.
c Switched to VSIDS.
We had 232596142 decisions of which only 0.000290633 were on extended
c Switched to LRB.
c Switched to VSIDS.
c Switched to LRB.
c Switched to VSIDS.
c Switched to LRB.
We had 348785245 decisions of which only 0.000419169 were on extended
We had 356817761 decisions of which only 0.000572561 were on extended
c Switched to VSIDS.
We had 433398776 decisions of which only 0.000507616 were on extended
c Switched to LRB.
We had 433661890 decisions of which only 0.000512381 were on extended
c Switched to VSIDS.
We had 433970949 decisions of which only 0.000512016 were on extended
c Switched to LRB.
We had 434502088 decisions of which only 0.000535095 were on extended
We had 434754819 decisions of which only 0.000534784 were on extended
c Switched to VSIDS.
We had 435238898 decisions of which only 0.000534189 were on extended
c Switched to LRB.
We had 435591701 decisions of which only 0.000541792 were on extended
We had 436077562 decisions of which only 0.000541188 were on extended
c Switched to VSIDS.
We had 436572262 decisions of which only 0.000540575 were on extended
c Switched to LRB.
We had 437189856 decisions of which only 0.000547131 were on extended
We had 437577511 decisions of which only 0.000546646 were on extended
c Switched to VSIDS.
We had 437846755 decisions of which only 0.00054631 were on extended
We had 438105498 decisions of which only 0.000545987 were on extended
c Switched to LRB.
We had 438658042 decisions of which only 0.000566956 were on extended
Window full
Continue
We had 438868343 decisions of which only 0.000566685 were on extended
c Switched to VSIDS.
We had 439092839 decisions of which only 0.000566395 were on extended
We had 439259652 decisions of which only 0.00056618 were on extended
We had 439695853 decisions of which only 0.000565618 were on extended
c Switched to LRB.
We had 440887413 decisions of which only 0.000572255 were on extended
We had 441152569 decisions of which only 0.000571911 were on extended
We had 441544624 decisions of which only 0.000571403 were on extended
We had 441797385 decisions of which only 0.000571076 were on extended
c Switched to VSIDS.
We had 442181063 decisions of which only 0.000570581 were on extended
We had 442441415 decisions of which only 0.000570245 were on extended
c Switched to LRB.
Window full
Continue
We had 443205072 decisions of which only 0.00057558 were on extended
We had 443487880 decisions of which only 0.000575213 were on extended
c Switched to VSIDS.
We had 444093516 decisions of which only 0.000574429 were on extended
We had 444254655 decisions of which only 0.00057422 were on extended
We had 444474928 decisions of which only 0.000573936 were on extended
We had 444881433 decisions of which only 0.000573411 were on extended
c Switched to LRB.
We had 445945871 decisions of which only 0.000659049 were on extended
We had 446107523 decisions of which only 0.00065881 were on extended
We had 446200193 decisions of which only 0.000658673 were on extended
We had 446350887 decisions of which only 0.000658451 were on extended
Window full
Continue
We had 446666940 decisions of which only 0.000657985 were on extended
We had 447173603 decisions of which only 0.000657239 were on extended
c Switched to VSIDS.
We had 447320194 decisions of which only 0.000657024 were on extended
We had 447769521 decisions of which only 0.000656364 were on extended
We had 448234476 decisions of which only 0.000655684 were on extended
c Switched to LRB.
We had 449188886 decisions of which only 0.000811685 were on extended
We had 449465448 decisions of which only 0.000811186 were on extended
We had 450037822 decisions of which only 0.000810154 were on extended
We had 450176835 decisions of which only 0.000809904 were on extended
c Switched to VSIDS.
We had 450292695 decisions of which only 0.000809918 were on extended
Window full
Continue
We had 450883915 decisions of which only 0.000809077 were on extended
We had 451200321 decisions of which only 0.00080851 were on extended
We had 451383173 decisions of which only 0.000808183 were on extended
We had 451578129 decisions of which only 0.000807834 were on extended
c Switched to LRB.
We had 452011174 decisions of which only 0.000862147 were on extended
We had 452272661 decisions of which only 0.000904764 were on extended
We had 452752543 decisions of which only 0.000903805 were on extended
We had 453182203 decisions of which only 0.000902948 were on extended
We had 453717583 decisions of which only 0.000902103 were on extended
We had 453875723 decisions of which only 0.000901789 were on extended
c Switched to VSIDS.
Window full
Continue
We had 454065227 decisions of which only 0.000911763 were on extended
We had 454332935 decisions of which only 0.000912106 were on extended
We had 454726767 decisions of which only 0.000911316 were on extended
We had 454858200 decisions of which only 0.000911053 were on extended
c Switched to LRB.
We had 455159524 decisions of which only 0.000927147 were on extended
We had 455352968 decisions of which only 0.000927852 were on extended
We had 455524870 decisions of which only 0.000929258 were on extended
c ===============================================================================
restarts                  : 2581
conflicts                 : 657819         (184 /sec)
decisions                 : 455645792      (0.00 % random) (127406 /sec)
propagations              : 9834288987     (2749838 /sec)
conflict literals         : 22715759       (46.25 % deleted)

conflicts w/ DIP found    : 324142         (49.28 % of conflicts)
conflicts w/ dangerous DIP: 0              (0.00 % of conflicts)
conflicts w/ DIP-learning : 54             (0.01 % of conflicts)
decisions on ext vars     : 4245           (0.00 % of decisions)
total ext vars            : 43          
tried delete ext vars     : 22          
deleted ext vars          : 22          
max ext vars              : 21          

Memory used               : 1614.00 MB
CPU time                  : 3576.32 s
DIP computation time      : 10.7202 s (0.30 % of total time)
ER_sel time               : 0.613144 s
ER_add time               : 0.00109 s
ER_delC time              : 0 s
ER_delV time              : 0.042049 s
ER_sub time               : 1.5558 s
ER_stat time              : 0 s

INDETERMINATE
